param set_len = 56;
param target_sum = 17729317947;
param values := [1] 905520515 [2] 1001585575 [3] 6363265 [4] 358533390 [5] 532668462 [6] 694935152 [7] 771724265 [8] 858146833 [9] 361747233 [10] 128677617 [11] 226142523 [12] 638414722 [13] 201521328 [14] 899811097 [15] 888914536 [16] 835572785 [17] 852645777 [18] 343124775 [19] 256436428 [20] 734701831 [21] 301747506 [22] 475643274 [23] 923165788 [24] 1051412626 [25] 235922366 [26] 778154759 [27] 493965731 [28] 195645192 [29] 696088133 [30] 595391950 [31] 714308297 [32] 1002605326 [33] 484668790 [34] 552578554 [35] 791957710 [36] 322524924 [37] 255182565 [38] 62282063 [39] 26667805 [40] 843545763 [41] 289043089 [42] 27789409 [43] 803574042 [44] 990908287 [45] 874238175 [46] 454341336 [47] 795717613 [48] 684406902 [49] 986834121 [50] 734520874 [51] 933400039 [52] 1020170090 [53] 467279113 [54] 912394502 [55] 225722091 [56] 406420454 ;
